n_boats=33;
n_periods=6;
capacity=[11,34,14,40,25,29,21,32,28,9,48,5,31,9,11,34,4,44,5,18,22,33,4,7,25,11,47,16,2,31,27,16,1];
crew=[3,15,7,18,10,7,9,6,8,5,21,2,15,1,4,9,1,22,2,4,5,9,1,1,8,5,18,6,1,14,7,4,1];
